<instance format="XCSP3" type="CSP">
  <variables>
    <array id="x" size="[6][6]"> 1..9 </array>
  </variables>
  <constraints>
    <block class="rows">
      <extension>
        <list> x[1][2..4] </list>
        <supports> (1,2,3)(1,3,2)(2,1,3)(2,3,1)(3,1,2)(3,2,1) </supports>
      </extension>
      <extension>
        <list> x[2][1..4] </list>
        <supports> (1,2,3,7)(1,2,4,6)(1,2,6,4)(1,2,7,3)(1,3,2,7)(1,3,4,5)(1,3,5,4)(1,3,7,2)(1,4,2,6)(1,4,3,5)(1,4,5,3)(1,4,6,2)(1,5,3,4)(1,5,4,3)(1,6,2,4)(1,6,4,2)(1,7,2,3)(1,7,3,2)(2,1,3,7)(2,1,4,6)(2,1,6,4)(2,1,7,3)(2,3,1,7)(2,3,7,1)(2,4,1,6)(2,4,6,1)(2,6,1,4)(2,6,4,1)(2,7,1,3)(2,7,3,1)(3,1,2,7)(3,1,4,5)(3,1,5,4)(3,1,7,2)(3,2,1,7)(3,2,7,1)(3,4,1,5)(3,4,5,1)(3,5,1,4)(3,5,4,1)(3,7,1,2)(3,7,2,1)(4,1,2,6)(4,1,3,5)(4,1,5,3)(4,1,6,2)(4,2,1,6)(4,2,6,1)(4,3,1,5)(4,3,5,1)(4,5,1,3)(4,5,3,1)(4,6,1,2)(4,6,2,1)(5,1,3,4)(5,1,4,3)(5,3,1,4)(5,3,4,1)(5,4,1,3)(5,4,3,1)(6,1,2,4)(6,1,4,2)(6,2,1,4)(6,2,4,1)(6,4,1,2)(6,4,2,1)(7,1,2,3)(7,1,3,2)(7,2,1,3)(7,2,3,1)(7,3,1,2)(7,3,2,1) </supports>
      </extension>
      <extension>
        <list> x[3][1..2] </list>
        <supports> (1,2)(2,1) </supports>
      </extension>
      <extension>
        <list> x[3][4..5] </list>
        <supports> (1,3)(3,1) </supports>
      </extension>
      <extension>
        <list> x[4][2..5] </list>
        <supports> (1,2,3,5)(1,2,5,3)(1,3,2,5)(1,3,5,2)(1,5,2,3)(1,5,3,2)(2,1,3,5)(2,1,5,3)(2,3,1,5)(2,3,5,1)(2,5,1,3)(2,5,3,1)(3,1,2,5)(3,1,5,2)(3,2,1,5)(3,2,5,1)(3,5,1,2)(3,5,2,1)(5,1,2,3)(5,1,3,2)(5,2,1,3)(5,2,3,1)(5,3,1,2)(5,3,2,1) </supports>
      </extension>
      <extension>
        <list> x[5][2..4] </list>
        <supports> (1,2,4)(1,4,2)(2,1,4)(2,4,1)(4,1,2)(4,2,1) </supports>
      </extension>
    </block>
    <block class="columns">
      <group>
        <extension>
          <list> %0 %1 %2 %3 %4 </list>
          <supports> (1,2,3,4,5)(1,2,3,5,4)(1,2,4,3,5)(1,2,4,5,3)(1,2,5,3,4)(1,2,5,4,3)(1,3,2,4,5)(1,3,2,5,4)(1,3,4,2,5)(1,3,4,5,2)(1,3,5,2,4)(1,3,5,4,2)(1,4,2,3,5)(1,4,2,5,3)(1,4,3,2,5)(1,4,3,5,2)(1,4,5,2,3)(1,4,5,3,2)(1,5,2,3,4)(1,5,2,4,3)(1,5,3,2,4)(1,5,3,4,2)(1,5,4,2,3)(1,5,4,3,2)(2,1,3,4,5)(2,1,3,5,4)(2,1,4,3,5)(2,1,4,5,3)(2,1,5,3,4)(2,1,5,4,3)(2,3,1,4,5)(2,3,1,5,4)(2,3,4,1,5)(2,3,4,5,1)(2,3,5,1,4)(2,3,5,4,1)(2,4,1,3,5)(2,4,1,5,3)(2,4,3,1,5)(2,4,3,5,1)(2,4,5,1,3)(2,4,5,3,1)(2,5,1,3,4)(2,5,1,4,3)(2,5,3,1,4)(2,5,3,4,1)(2,5,4,1,3)(2,5,4,3,1)(3,1,2,4,5)(3,1,2,5,4)(3,1,4,2,5)(3,1,4,5,2)(3,1,5,2,4)(3,1,5,4,2)(3,2,1,4,5)(3,2,1,5,4)(3,2,4,1,5)(3,2,4,5,1)(3,2,5,1,4)(3,2,5,4,1)(3,4,1,2,5)(3,4,1,5,2)(3,4,2,1,5)(3,4,2,5,1)(3,4,5,1,2)(3,4,5,2,1)(3,5,1,2,4)(3,5,1,4,2)(3,5,2,1,4)(3,5,2,4,1)(3,5,4,1,2)(3,5,4,2,1)(4,1,2,3,5)(4,1,2,5,3)(4,1,3,2,5)(4,1,3,5,2)(4,1,5,2,3)(4,1,5,3,2)(4,2,1,3,5)(4,2,1,5,3)(4,2,3,1,5)(4,2,3,5,1)(4,2,5,1,3)(4,2,5,3,1)(4,3,1,2,5)(4,3,1,5,2)(4,3,2,1,5)(4,3,2,5,1)(4,3,5,1,2)(4,3,5,2,1)(4,5,1,2,3)(4,5,1,3,2)(4,5,2,1,3)(4,5,2,3,1)(4,5,3,1,2)(4,5,3,2,1)(5,1,2,3,4)(5,1,2,4,3)(5,1,3,2,4)(5,1,3,4,2)(5,1,4,2,3)(5,1,4,3,2)(5,2,1,3,4)(5,2,1,4,3)(5,2,3,1,4)(5,2,3,4,1)(5,2,4,1,3)(5,2,4,3,1)(5,3,1,2,4)(5,3,1,4,2)(5,3,2,1,4)(5,3,2,4,1)(5,3,4,1,2)(5,3,4,2,1)(5,4,1,2,3)(5,4,1,3,2)(5,4,2,1,3)(5,4,2,3,1)(5,4,3,1,2)(5,4,3,2,1) </supports>
        </extension>
        <args> x[1..5][2] </args>
        <args> x[1..5][4] </args>
      </group>
      <group>
        <extension>
          <list> %0 %1 </list>
          <supports> (1,2)(2,1) </supports>
        </extension>
        <args> x[1..2][3] </args>
        <args> x[3..4][5] </args>
      </group>
      <group>
        <extension>
          <list> %0 %1 </list>
          <supports> (1,3)(3,1) </supports>
        </extension>
        <args> x[2..3][1] </args>
        <args> x[4..5][3] </args>
      </group>
    </block>
  </constraints>
</instance>
